8
0, 459, 204, 561, 567, 783, 599, 505
459, 0, 268, 104, 118, 431, 152, 857
204, 268, 0, 373, 384, 650, 417, 677
561, 104, 373, 0, 27, 361, 55, 937
567, 118, 384, 27, 0, 334, 34, 930
783, 431, 650, 361, 334, 0, 309, 989
599, 152, 417, 55, 34, 309, 0, 952
505, 857, 677, 937, 930, 989, 952, 0
